n_res = 4;
rc = [ 15, 18, 17, 16 ];
n_tasks = 30;
d = [ 5, 6, 4, 3, 3, 10, 9, 2, 1, 4, 5, 7, 10, 5, 2, 2, 6, 4, 9, 9, 2, 4, 3, 2, 3, 9, 6, 6, 2, 4 ];
rr = [| 8, 9, 6, 5, 9, 3, 6, 3, 2, 4, 3, 6, 8, 5, 8, 2, 7, 8, 3, 3, 9, 7, 3, 3, 8, 9, 1, 1, 9, 9
      | 2, 8, 3, 6, 5, 5, 10, 4, 3, 6, 2, 6, 9, 8, 9, 8, 10, 6, 5, 7, 2, 6, 9, 6, 1, 9, 1, 10, 7, 5
      | 2, 3, 10, 3, 9, 4, 8, 5, 2, 2, 5, 4, 2, 5, 4, 4, 9, 6, 6, 5, 4, 9, 1, 1, 8, 5, 1, 1, 10, 3
      | 10, 8, 3, 9, 3, 1, 4, 6, 3, 6, 7, 6, 4, 1, 8, 6, 3, 1, 6, 5, 9, 1, 1, 6, 5, 2, 5, 3, 9, 6 |];
suc = [ { 2 }, 
        { 3 }, 
        { 4 }, 
        { 5 }, 
        { 6 }, 
        { 7 }, 
        { 8 }, 
        { 9 }, 
        { 10 }, 
        { 11 }, 
        { 12 }, 
        { 13 }, 
        { 14 }, 
        { 15 }, 
        { 16 }, 
        { 17 }, 
        { 18 }, 
        { 19 }, 
        { 20 }, 
        { 21 }, 
        { 22 }, 
        { 23 }, 
        { 24 }, 
        { 25 }, 
        { 26 }, 
        { 27 }, 
        { 28 }, 
        { 29 }, 
        { 30 }, 
        {  }]; 
